112
0 89 81 52 96 32 82 64 25 40 
102 11 42 20 62 90 19 61 3 45 
5 94 36 92 26 70 75 69 93 87 
8 98 28 97 74 2 14 30 91 18 
56 4 95 77 84 109 100 43 78 55 
16 9 57 29 59 48 1 99 67 76 
65 27 79 15 50 24 111 58 23 73 
86 7 33 41 39 38 46 31 72 110 
60 44 13 66 108 12 71 34 53 49 
47 107 6 63 35 21 37 80 101 88 
68 83 106 22 85 103 51 17 10 104 
105 54 
